c FILE: games120.col
c Translated from Stanford GraphBase File: games120.gb
c Stanford GraphBase ID: games(120,0,0,0,0,0,128,0)
p edge 120 1276
e 1 16
e 1 20
e 1 94
e 1 80
e 1 57
e 1 62
e 1 89
e 1 113
e 1 5
e 1 21
e 1 15
e 2 24
e 2 30
e 2 77
e 2 92
e 2 41
e 2 55
e 2 6
e 2 54
e 3 100
e 3 44
e 3 105
e 3 91
e 3 42
e 3 103
e 3 90
e 3 22
e 3 67
e 3 31
e 3 115
e 3 71
e 4 38
e 4 85
e 4 49
e 4 50
e 4 61
e 4 63
e 4 99
e 4 96
e 4 84
e 4 107
e 4 12
e 5 56
e 5 26
e 5 72
e 5 38
e 5 32
e 5 85
e 5 76
e 5 1
e 5 34
e 5 53
e 6 11
e 6 87
e 6 13
e 6 14
e 6 41
e 6 24
e 6 55
e 6 92
e 6 2
e 6 60
e 7 66
e 7 83
e 7 21
e 7 118
e 7 48
e 7 10
e 7 120
e 7 25
e 7 75
e 7 64
e 7 28
e 7 51
e 8 73
e 8 18
e 8 53
e 8 86
e 8 71
e 8 104
e 8 98
e 8 38
e 8 46
e 8 100
e 9 33
e 9 31
e 9 69
e 9 58
e 9 116
e 9 17
e 9 51
e 9 70
e 9 101
e 9 119
e 9 38
e 10 25
e 10 75
e 10 48
e 10 83
e 10 21
e 10 7
e 10 64
e 10 35
e 10 120
e 10 36
e 10 118
e 11 6
e 11 55
e 11 14
e 11 41
e 11 60
e 11 87
e 11 30
e 11 54
e 11 13
e 12 117
e 12 19
e 12 43
e 12 102
e 12 23
e 12 88
e 12 35
e 12 97
e 12 68
e 12 29
e 12 4
e 13 60
e 13 41
e 13 6
e 13 87
e 13 55
e 13 14
e 13 54
e 13 77
e 13 30
e 13 11
e 14 55
e 14 60
e 14 11
e 14 6
e 14 87
e 14 13
e 14 77
e 14 54
e 14 24
e 14 41
e 15 53
e 15 95
e 15 52
e 15 65
e 15 59
e 15 108
e 15 39
e 15 66
e 15 37
e 15 112
e 15 88
e 15 1
e 16 65
e 16 1
e 16 62
e 16 80
e 16 94
e 16 47
e 16 57
e 16 113
e 16 89
e 16 26
e 16 27
e 16 34
e 17 31
e 17 34
e 17 28
e 17 9
e 17 101
e 17 69
e 17 33
e 17 79
e 17 42
e 17 103
e 17 115
e 18 20
e 18 8
e 18 93
e 18 100
e 18 86
e 18 27
e 18 84
e 18 73
e 18 53
e 18 71
e 18 98
e 19 61
e 19 97
e 19 12
e 19 23
e 19 35
e 19 43
e 19 117
e 19 102
e 19 29
e 19 80
e 19 114
e 19 90
e 20 18
e 20 113
e 20 1
e 20 89
e 20 62
e 20 80
e 20 47
e 20 94
e 20 57
e 20 65
e 20 56
e 20 67
e 21 83
e 21 118
e 21 7
e 21 10
e 21 120
e 21 25
e 21 75
e 21 48
e 21 1
e 22 39
e 22 44
e 22 105
e 22 91
e 22 42
e 22 3
e 22 90
e 22 103
e 22 67
e 22 74
e 23 27
e 23 102
e 23 43
e 23 19
e 23 97
e 23 12
e 23 35
e 23 117
e 23 59
e 23 44
e 23 57
e 23 95
e 23 38
e 24 2
e 24 54
e 24 30
e 24 92
e 24 6
e 24 60
e 24 14
e 24 77
e 25 10
e 25 120
e 25 118
e 25 75
e 25 83
e 25 21
e 25 7
e 25 28
e 25 31
e 25 48
e 25 50
e 26 5
e 26 109
e 26 93
e 26 64
e 26 34
e 26 72
e 26 56
e 26 16
e 26 76
e 26 92
e 26 51
e 27 23
e 27 65
e 27 76
e 27 38
e 27 84
e 27 72
e 27 88
e 27 18
e 27 95
e 27 47
e 27 16
e 27 113
e 28 58
e 28 79
e 28 68
e 28 17
e 28 32
e 28 109
e 28 120
e 28 25
e 28 89
e 28 7
e 28 75
e 29 52
e 29 65
e 29 39
e 29 108
e 29 112
e 29 37
e 29 19
e 29 95
e 29 74
e 29 12
e 30 92
e 30 2
e 30 24
e 30 77
e 30 54
e 30 55
e 30 11
e 30 41
e 30 13
e 30 93
e 31 17
e 31 9
e 31 58
e 31 33
e 31 79
e 31 51
e 31 70
e 31 3
e 31 106
e 31 25
e 31 110
e 32 114
e 32 69
e 32 5
e 32 28
e 32 78
e 32 101
e 32 110
e 32 115
e 32 85
e 32 79
e 32 36
e 33 113
e 33 9
e 33 38
e 33 31
e 33 106
e 33 110
e 33 51
e 33 17
e 33 91
e 33 116
e 33 69
e 34 37
e 34 88
e 34 109
e 34 17
e 34 56
e 34 93
e 34 26
e 34 76
e 34 106
e 34 72
e 34 16
e 34 5
e 34 65
e 35 43
e 35 117
e 35 102
e 35 19
e 35 97
e 35 23
e 35 12
e 35 10
e 35 89
e 35 80
e 36 49
e 36 98
e 36 64
e 36 111
e 36 116
e 36 115
e 36 10
e 36 32
e 37 34
e 37 39
e 37 95
e 37 59
e 37 112
e 37 65
e 37 29
e 37 108
e 37 15
e 37 52
e 37 104
e 37 57
e 38 4
e 38 106
e 38 51
e 38 33
e 38 27
e 38 5
e 38 58
e 38 70
e 38 116
e 38 8
e 38 9
e 38 81
e 38 23
e 39 22
e 39 37
e 39 112
e 39 29
e 39 65
e 39 52
e 39 15
e 39 59
e 39 117
e 39 98
e 39 90
e 40 74
e 40 119
e 40 82
e 40 66
e 40 46
e 40 81
e 40 73
e 40 45
e 40 107
e 41 87
e 41 13
e 41 55
e 41 11
e 41 6
e 41 2
e 41 60
e 41 30
e 41 14
e 42 91
e 42 67
e 42 103
e 42 3
e 42 44
e 42 22
e 42 90
e 42 105
e 42 17
e 42 106
e 43 35
e 43 23
e 43 12
e 43 117
e 43 19
e 43 102
e 43 97
e 43 105
e 43 70
e 43 111
e 44 88
e 44 3
e 44 90
e 44 105
e 44 22
e 44 67
e 44 42
e 44 91
e 44 97
e 44 103
e 44 23
e 44 76
e 45 100
e 45 81
e 45 119
e 45 46
e 45 74
e 45 66
e 45 82
e 45 52
e 45 117
e 45 40
e 45 86
e 46 119
e 46 66
e 46 45
e 46 111
e 46 81
e 46 74
e 46 40
e 46 82
e 46 102
e 46 8
e 46 104
e 47 94
e 47 89
e 47 62
e 47 113
e 47 16
e 47 20
e 47 57
e 47 80
e 47 27
e 47 59
e 48 84
e 48 10
e 48 120
e 48 7
e 48 75
e 48 118
e 48 83
e 48 21
e 48 114
e 48 25
e 49 36
e 49 4
e 49 76
e 49 50
e 49 96
e 49 63
e 49 61
e 49 113
e 49 99
e 49 107
e 49 109
e 49 85
e 50 96
e 50 4
e 50 107
e 50 49
e 50 61
e 50 63
e 50 99
e 50 51
e 50 78
e 50 25
e 51 38
e 51 70
e 51 106
e 51 110
e 51 31
e 51 9
e 51 33
e 51 50
e 51 94
e 51 26
e 51 7
e 52 98
e 52 29
e 52 15
e 52 108
e 52 95
e 52 39
e 52 59
e 52 45
e 52 100
e 52 37
e 52 73
e 53 15
e 53 71
e 53 100
e 53 98
e 53 8
e 53 104
e 53 73
e 53 86
e 53 18
e 53 112
e 53 5
e 54 77
e 54 24
e 54 92
e 54 30
e 54 13
e 54 14
e 54 11
e 54 2
e 55 14
e 55 11
e 55 41
e 55 60
e 55 13
e 55 30
e 55 6
e 55 2
e 55 87
e 56 5
e 56 88
e 56 68
e 56 34
e 56 109
e 56 76
e 56 93
e 56 26
e 56 84
e 56 20
e 56 72
e 57 107
e 57 62
e 57 94
e 57 113
e 57 89
e 57 1
e 57 16
e 57 47
e 57 20
e 57 23
e 57 37
e 58 68
e 58 116
e 58 28
e 58 31
e 58 9
e 58 76
e 58 38
e 58 115
e 58 106
e 58 110
e 58 70
e 58 101
e 59 89
e 59 112
e 59 108
e 59 37
e 59 15
e 59 95
e 59 52
e 59 39
e 59 23
e 59 65
e 59 47
e 59 66
e 60 13
e 60 14
e 60 87
e 60 55
e 60 11
e 60 77
e 60 41
e 60 24
e 60 92
e 60 6
e 61 19
e 61 110
e 61 63
e 61 85
e 61 4
e 61 96
e 61 50
e 61 107
e 61 49
e 61 78
e 61 99
e 62 57
e 62 16
e 62 47
e 62 20
e 62 89
e 62 1
e 62 80
e 62 94
e 62 114
e 62 103
e 62 96
e 63 106
e 63 61
e 63 96
e 63 107
e 63 4
e 63 49
e 63 50
e 63 93
e 63 99
e 63 103
e 64 36
e 64 114
e 64 26
e 64 70
e 64 84
e 64 10
e 64 119
e 64 7
e 64 120
e 65 16
e 65 27
e 65 108
e 65 29
e 65 15
e 65 39
e 65 37
e 65 95
e 65 112
e 65 20
e 65 59
e 65 76
e 65 34
e 66 7
e 66 82
e 66 46
e 66 119
e 66 45
e 66 40
e 66 15
e 66 95
e 66 74
e 66 81
e 66 59
e 66 68
e 67 42
e 67 105
e 67 44
e 67 88
e 67 103
e 67 91
e 67 3
e 67 90
e 67 104
e 67 22
e 67 20
e 68 58
e 68 56
e 68 28
e 68 72
e 68 69
e 68 111
e 68 101
e 68 109
e 68 12
e 68 66
e 69 79
e 69 9
e 69 32
e 69 115
e 69 101
e 69 68
e 69 17
e 69 111
e 69 33
e 70 79
e 70 51
e 70 110
e 70 116
e 70 64
e 70 38
e 70 31
e 70 9
e 70 58
e 70 43
e 71 100
e 71 98
e 71 53
e 71 73
e 71 104
e 71 81
e 71 119
e 71 8
e 71 86
e 71 18
e 71 3
e 72 76
e 72 5
e 72 88
e 72 27
e 72 68
e 72 26
e 72 109
e 72 34
e 72 97
e 72 56
e 72 83
e 73 88
e 73 8
e 73 104
e 73 71
e 73 86
e 73 108
e 73 53
e 73 18
e 73 100
e 73 40
e 73 52
e 74 40
e 74 82
e 74 45
e 74 46
e 74 119
e 74 81
e 74 66
e 74 29
e 74 22
e 75 10
e 75 120
e 75 25
e 75 118
e 75 48
e 75 83
e 75 21
e 75 7
e 75 85
e 75 28
e 76 79
e 76 72
e 76 27
e 76 49
e 76 109
e 76 58
e 76 56
e 76 34
e 76 5
e 76 26
e 76 65
e 76 44
e 77 54
e 77 92
e 77 2
e 77 30
e 77 93
e 77 60
e 77 14
e 77 13
e 77 87
e 77 24
e 78 109
e 78 107
e 78 79
e 78 99
e 78 32
e 78 61
e 78 85
e 78 50
e 78 96
e 79 76
e 79 70
e 79 69
e 79 28
e 79 78
e 79 31
e 79 116
e 79 88
e 79 85
e 79 17
e 79 32
e 80 89
e 80 113
e 80 16
e 80 1
e 80 20
e 80 94
e 80 62
e 80 47
e 80 19
e 80 35
e 80 86
e 81 45
e 81 82
e 81 71
e 81 46
e 81 119
e 81 74
e 81 40
e 81 66
e 81 38
e 82 66
e 82 81
e 82 74
e 82 40
e 82 45
e 82 114
e 82 119
e 82 46
e 82 86
e 82 104
e 82 118
e 83 21
e 83 7
e 83 10
e 83 120
e 83 25
e 83 75
e 83 48
e 83 118
e 83 72
e 84 93
e 84 48
e 84 27
e 84 64
e 84 18
e 84 56
e 84 4
e 85 4
e 85 61
e 85 99
e 85 101
e 85 5
e 85 109
e 85 79
e 85 78
e 85 32
e 85 75
e 85 49
e 86 100
e 86 104
e 86 73
e 86 18
e 86 8
e 86 98
e 86 53
e 86 71
e 86 82
e 86 80
e 86 45
e 87 41
e 87 6
e 87 60
e 87 13
e 87 14
e 87 11
e 87 92
e 87 77
e 87 55
e 88 44
e 88 73
e 88 34
e 88 56
e 88 72
e 88 67
e 88 27
e 88 12
e 88 79
e 88 89
e 88 15
e 88 100
e 89 59
e 89 80
e 89 47
e 89 20
e 89 57
e 89 62
e 89 113
e 89 1
e 89 16
e 89 88
e 89 35
e 89 28
e 90 44
e 90 103
e 90 91
e 90 105
e 90 3
e 90 42
e 90 22
e 90 67
e 90 39
e 90 19
e 91 42
e 91 3
e 91 90
e 91 103
e 91 22
e 91 44
e 91 67
e 91 105
e 91 98
e 91 33
e 91 111
e 92 30
e 92 77
e 92 54
e 92 24
e 92 2
e 92 87
e 92 6
e 92 60
e 92 26
e 93 84
e 93 106
e 93 18
e 93 26
e 93 34
e 93 77
e 93 56
e 93 96
e 93 63
e 93 30
e 94 116
e 94 47
e 94 57
e 94 1
e 94 16
e 94 113
e 94 80
e 94 20
e 94 62
e 94 118
e 94 117
e 94 51
e 95 15
e 95 37
e 95 112
e 95 52
e 95 59
e 95 65
e 95 27
e 95 66
e 95 29
e 95 108
e 95 23
e 96 50
e 96 99
e 96 63
e 96 61
e 96 49
e 96 93
e 96 107
e 96 4
e 96 62
e 96 78
e 97 19
e 97 102
e 97 117
e 97 23
e 97 35
e 97 44
e 97 43
e 97 12
e 97 111
e 97 72
e 97 108
e 98 52
e 98 71
e 98 36
e 98 111
e 98 53
e 98 104
e 98 100
e 98 86
e 98 91
e 98 8
e 98 39
e 98 18
e 99 101
e 99 96
e 99 85
e 99 78
e 99 107
e 99 4
e 99 50
e 99 49
e 99 63
e 99 61
e 100 3
e 100 71
e 100 45
e 100 86
e 100 53
e 100 18
e 100 104
e 100 98
e 100 52
e 100 73
e 100 112
e 100 88
e 100 8
e 101 99
e 101 116
e 101 115
e 101 85
e 101 69
e 101 17
e 101 32
e 101 68
e 101 9
e 101 110
e 101 58
e 102 23
e 102 97
e 102 35
e 102 12
e 102 117
e 102 43
e 102 19
e 102 104
e 102 114
e 102 46
e 103 90
e 103 42
e 103 91
e 103 3
e 103 67
e 103 105
e 103 44
e 103 22
e 103 62
e 103 17
e 103 63
e 104 73
e 104 86
e 104 71
e 104 100
e 104 98
e 104 53
e 104 8
e 104 102
e 104 67
e 104 37
e 104 82
e 104 46
e 105 3
e 105 44
e 105 67
e 105 22
e 105 90
e 105 103
e 105 91
e 105 42
e 105 43
e 105 117
e 105 112
e 106 38
e 106 63
e 106 93
e 106 51
e 106 33
e 106 110
e 106 116
e 106 34
e 106 58
e 106 31
e 106 42
e 107 57
e 107 78
e 107 50
e 107 63
e 107 99
e 107 61
e 107 110
e 107 96
e 107 49
e 107 4
e 107 40
e 108 65
e 108 59
e 108 52
e 108 29
e 108 15
e 108 73
e 108 37
e 108 112
e 108 113
e 108 95
e 108 97
e 109 78
e 109 34
e 109 26
e 109 76
e 109 56
e 109 28
e 109 85
e 109 72
e 109 68
e 109 49
e 109 120
e 110 61
e 110 116
e 110 70
e 110 51
e 110 106
e 110 33
e 110 107
e 110 32
e 110 58
e 110 101
e 110 31
e 111 98
e 111 46
e 111 115
e 111 36
e 111 68
e 111 69
e 111 97
e 111 91
e 111 43
e 112 59
e 112 39
e 112 95
e 112 37
e 112 29
e 112 65
e 112 108
e 112 15
e 112 100
e 112 53
e 112 105
e 113 33
e 113 20
e 113 80
e 113 57
e 113 47
e 113 94
e 113 89
e 113 16
e 113 1
e 113 49
e 113 108
e 113 27
e 114 115
e 114 32
e 114 64
e 114 82
e 114 62
e 114 102
e 114 48
e 114 19
e 115 114
e 115 101
e 115 69
e 115 111
e 115 58
e 115 36
e 115 32
e 115 3
e 115 17
e 116 94
e 116 58
e 116 110
e 116 101
e 116 70
e 116 9
e 116 79
e 116 106
e 116 36
e 116 38
e 116 33
e 116 119
e 117 12
e 117 35
e 117 97
e 117 43
e 117 102
e 117 19
e 117 23
e 117 39
e 117 94
e 117 45
e 117 105
e 118 120
e 118 21
e 118 25
e 118 7
e 118 75
e 118 48
e 118 94
e 118 83
e 118 10
e 118 82
e 119 46
e 119 45
e 119 66
e 119 40
e 119 71
e 119 81
e 119 74
e 119 82
e 119 64
e 119 9
e 119 116
e 120 118
e 120 25
e 120 75
e 120 48
e 120 83
e 120 21
e 120 7
e 120 28
e 120 10
e 120 64
e 120 109